c Standarized MaxSat Instance
c{
c "sha1sum": "a7486dc9fbbb7dd6ad25a1eca0c7ca2f8d16f825",
c "nvars": 280,
c "ncls": 1309,
c "total_lits": 2324,
c "nhards": 364,
c "nhard_nlits": 812,
c "nhard_len_stats":
c    { "min": 2,
c      "max": 5,
c      "ave": 2.2308,
c      "stddev": 0.7994 },
c "nsofts": 945,
c "nsoft_nlits": 1512,
c "nsoft_len_stats":
c    { "min": 1,
c      "max": 4,
c      "ave": 1.6000,
c      "stddev": 0.7676 },
c "nsoft_wts": 1,
c "soft_wt_stats":
c    { "min": 1,
c      "max": 1,
c      "ave": 1.0000,
c      "stddev": 0.0000 }
c}
c------------------------------------------------------------
c Original instance: kbtree_wcnf.s-suppc_w9-s7-h3-d5/90/kbtree9_7_3_5_90_4.wcsp
c Format: Partial Max-SAT (wcnf)
c Encoding: [SEQUENTIAL] + Support (less SUM 2^#literals direction)
h 1 2 3 4 5 0
h 6 7 8 9 10 0
h 11 12 13 14 15 0
h 16 17 18 19 20 0
h 21 22 23 24 25 0
h 26 27 28 29 30 0
h 31 32 33 34 35 0
h 36 37 38 39 40 0
h 41 42 43 44 45 0
h 46 47 48 49 50 0
h 51 52 53 54 55 0
h 56 57 58 59 60 0
h 61 62 63 64 65 0
h 66 67 68 69 70 0
h 71 72 73 74 75 0
h 76 77 78 79 80 0
h 81 82 83 84 85 0
h 86 87 88 89 90 0
h 91 92 93 94 95 0
h 96 97 98 99 100 0
h 101 102 103 104 105 0
h 106 107 108 109 110 0
h 111 112 113 114 115 0
h 116 117 118 119 120 0
h 121 122 123 124 125 0
h 126 127 128 129 130 0
h 131 132 133 134 135 0
h 136 137 138 139 140 0
h -1 -142 0
h -2 142 0
h -2 -143 0
h -3 143 0
h -3 -144 0
h -4 144 0
h -4 -145 0
h -5 145 0
h -6 -147 0
h -7 147 0
h -7 -148 0
h -8 148 0
h -8 -149 0
h -9 149 0
h -9 -150 0
h -10 150 0
h -11 -152 0
h -12 152 0
h -12 -153 0
h -13 153 0
h -13 -154 0
h -14 154 0
h -14 -155 0
h -15 155 0
h -16 -157 0
h -17 157 0
h -17 -158 0
h -18 158 0
h -18 -159 0
h -19 159 0
h -19 -160 0
h -20 160 0
h -21 -162 0
h -22 162 0
h -22 -163 0
h -23 163 0
h -23 -164 0
h -24 164 0
h -24 -165 0
h -25 165 0
h -26 -167 0
h -27 167 0
h -27 -168 0
h -28 168 0
h -28 -169 0
h -29 169 0
h -29 -170 0
h -30 170 0
h -31 -172 0
h -32 172 0
h -32 -173 0
h -33 173 0
h -33 -174 0
h -34 174 0
h -34 -175 0
h -35 175 0
h -36 -177 0
h -37 177 0
h -37 -178 0
h -38 178 0
h -38 -179 0
h -39 179 0
h -39 -180 0
h -40 180 0
h -41 -182 0
h -42 182 0
h -42 -183 0
h -43 183 0
h -43 -184 0
h -44 184 0
h -44 -185 0
h -45 185 0
h -46 -187 0
h -47 187 0
h -47 -188 0
h -48 188 0
h -48 -189 0
h -49 189 0
h -49 -190 0
h -50 190 0
h -51 -192 0
h -52 192 0
h -52 -193 0
h -53 193 0
h -53 -194 0
h -54 194 0
h -54 -195 0
h -55 195 0
h -56 -197 0
h -57 197 0
h -57 -198 0
h -58 198 0
h -58 -199 0
h -59 199 0
h -59 -200 0
h -60 200 0
h -61 -202 0
h -62 202 0
h -62 -203 0
h -63 203 0
h -63 -204 0
h -64 204 0
h -64 -205 0
h -65 205 0
h -66 -207 0
h -67 207 0
h -67 -208 0
h -68 208 0
h -68 -209 0
h -69 209 0
h -69 -210 0
h -70 210 0
h -71 -212 0
h -72 212 0
h -72 -213 0
h -73 213 0
h -73 -214 0
h -74 214 0
h -74 -215 0
h -75 215 0
h -76 -217 0
h -77 217 0
h -77 -218 0
h -78 218 0
h -78 -219 0
h -79 219 0
h -79 -220 0
h -80 220 0
h -81 -222 0
h -82 222 0
h -82 -223 0
h -83 223 0
h -83 -224 0
h -84 224 0
h -84 -225 0
h -85 225 0
h -86 -227 0
h -87 227 0
h -87 -228 0
h -88 228 0
h -88 -229 0
h -89 229 0
h -89 -230 0
h -90 230 0
h -91 -232 0
h -92 232 0
h -92 -233 0
h -93 233 0
h -93 -234 0
h -94 234 0
h -94 -235 0
h -95 235 0
h -96 -237 0
h -97 237 0
h -97 -238 0
h -98 238 0
h -98 -239 0
h -99 239 0
h -99 -240 0
h -100 240 0
h -101 -242 0
h -102 242 0
h -102 -243 0
h -103 243 0
h -103 -244 0
h -104 244 0
h -104 -245 0
h -105 245 0
h -106 -247 0
h -107 247 0
h -107 -248 0
h -108 248 0
h -108 -249 0
h -109 249 0
h -109 -250 0
h -110 250 0
h -111 -252 0
h -112 252 0
h -112 -253 0
h -113 253 0
h -113 -254 0
h -114 254 0
h -114 -255 0
h -115 255 0
h -116 -257 0
h -117 257 0
h -117 -258 0
h -118 258 0
h -118 -259 0
h -119 259 0
h -119 -260 0
h -120 260 0
h -121 -262 0
h -122 262 0
h -122 -263 0
h -123 263 0
h -123 -264 0
h -124 264 0
h -124 -265 0
h -125 265 0
h -126 -267 0
h -127 267 0
h -127 -268 0
h -128 268 0
h -128 -269 0
h -129 269 0
h -129 -270 0
h -130 270 0
h -131 -272 0
h -132 272 0
h -132 -273 0
h -133 273 0
h -133 -274 0
h -134 274 0
h -134 -275 0
h -135 275 0
h -136 -277 0
h -137 277 0
h -137 -278 0
h -138 278 0
h -138 -279 0
h -139 279 0
h -139 -280 0
h -140 280 0
h -142 141 0
h -143 142 0
h -144 143 0
h -145 144 0
h -147 146 0
h -148 147 0
h -149 148 0
h -150 149 0
h -152 151 0
h -153 152 0
h -154 153 0
h -155 154 0
h -157 156 0
h -158 157 0
h -159 158 0
h -160 159 0
h -162 161 0
h -163 162 0
h -164 163 0
h -165 164 0
h -167 166 0
h -168 167 0
h -169 168 0
h -170 169 0
h -172 171 0
h -173 172 0
h -174 173 0
h -175 174 0
h -177 176 0
h -178 177 0
h -179 178 0
h -180 179 0
h -182 181 0
h -183 182 0
h -184 183 0
h -185 184 0
h -187 186 0
h -188 187 0
h -189 188 0
h -190 189 0
h -192 191 0
h -193 192 0
h -194 193 0
h -195 194 0
h -197 196 0
h -198 197 0
h -199 198 0
h -200 199 0
h -202 201 0
h -203 202 0
h -204 203 0
h -205 204 0
h -207 206 0
h -208 207 0
h -209 208 0
h -210 209 0
h -212 211 0
h -213 212 0
h -214 213 0
h -215 214 0
h -217 216 0
h -218 217 0
h -219 218 0
h -220 219 0
h -222 221 0
h -223 222 0
h -224 223 0
h -225 224 0
h -227 226 0
h -228 227 0
h -229 228 0
h -230 229 0
h -232 231 0
h -233 232 0
h -234 233 0
h -235 234 0
h -237 236 0
h -238 237 0
h -239 238 0
h -240 239 0
h -242 241 0
h -243 242 0
h -244 243 0
h -245 244 0
h -247 246 0
h -248 247 0
h -249 248 0
h -250 249 0
h -252 251 0
h -253 252 0
h -254 253 0
h -255 254 0
h -257 256 0
h -258 257 0
h -259 258 0
h -260 259 0
h -262 261 0
h -263 262 0
h -264 263 0
h -265 264 0
h -267 266 0
h -268 267 0
h -269 268 0
h -270 269 0
h -272 271 0
h -273 272 0
h -274 273 0
h -275 274 0
h -277 276 0
h -278 277 0
h -279 278 0
h -280 279 0
1 -16 111 114 0
1 -17 0
1 -18 0
1 -19 113 0
1 -20 0
1 -131 0
1 -132 3 0
1 -133 0
1 -134 0
1 -135 1 5 0
1 -126 0
1 -127 0
1 -128 0
1 -129 136 139 0
1 -130 138 0
1 -126 0
1 -127 41 45 0
1 -128 45 0
1 -129 0
1 -130 0
1 -76 71 72 73 0
1 -77 0
1 -78 0
1 -79 0
1 -80 0
1 -26 20 0
1 -27 16 0
1 -28 0
1 -29 0
1 -30 18 0
1 -131 0
1 -132 28 30 0
1 -133 30 0
1 -134 0
1 -135 0
1 -136 132 133 0
1 -137 0
1 -138 0
1 -139 133 0
1 -140 0
1 -121 117 0
1 -122 118 119 0
1 -123 0
1 -124 0
1 -125 0
1 -91 0
1 -92 6 0
1 -93 0
1 -94 10 0
1 -95 8 0
1 -71 0
1 -72 61 0
1 -73 64 0
1 -74 62 0
1 -75 0
1 -61 34 0
1 -62 0
1 -63 0
1 -64 32 34 0
1 -65 0
1 -121 0
1 -122 44 0
1 -123 0
1 -124 43 0
1 -125 41 0
1 -66 0
1 -67 0
1 -68 55 0
1 -69 52 0
1 -70 54 0
1 -6 0
1 -7 133 0
1 -8 0
1 -9 0
1 -10 131 132 0
1 -131 101 103 0
1 -132 0
1 -133 0
1 -134 101 0
1 -135 0
1 -86 21 25 0
1 -87 23 0
1 -88 0
1 -89 0
1 -90 0
1 -76 10 0
1 -77 0
1 -78 7 0
1 -79 0
1 -80 9 0
1 -56 0
1 -57 0
1 -58 0
1 -59 61 63 65 0
1 -60 0
1 -106 0
1 -107 100 0
1 -108 0
1 -109 97 98 0
1 -110 0
1 -21 0
1 -22 46 0
1 -23 0
1 -24 47 50 0
1 -25 0
1 -21 36 39 0
1 -22 0
1 -23 0
1 -24 37 0
1 -25 0
1 -31 25 0
1 -32 22 25 0
1 -33 0
1 -34 0
1 -35 0
1 -106 0
1 -107 24 25 0
1 -108 0
1 -109 0
1 -110 21 0
1 -41 0
1 -42 21 0
1 -43 21 23 0
1 -44 0
1 -45 0
1 -101 21 0
1 -102 0
1 -103 0
1 -104 0
1 -105 21 25 0
1 -96 26 29 0
1 -97 0
1 -98 26 0
1 -99 0
1 -100 0
1 -111 105 0
1 -112 0
1 -113 102 104 0
1 -114 0
1 -115 0
1 -1 16 0
1 -2 17 20 0
1 -3 0
1 -4 0
1 -5 0
1 -41 0
1 -42 36 39 0
1 -43 0
1 -44 0
1 -45 37 0
1 -136 0
1 -137 0
1 -138 0
1 -139 41 43 45 0
1 -140 0
1 -21 0
1 -22 64 0
1 -23 0
1 -24 0
1 -25 61 62 0
1 -36 11 0
1 -37 0
1 -38 14 0
1 -39 0
1 -40 12 0
1 -61 0
1 -62 0
1 -63 0
1 -64 41 43 0
1 -65 43 0
1 -116 0
1 -117 6 0
1 -118 0
1 -119 7 9 0
1 -120 0
1 -46 17 19 0
1 -47 0
1 -48 0
1 -49 0
1 -50 17 0
1 -21 0
1 -22 96 0
1 -23 98 100 0
1 -24 0
1 -25 0
1 -91 63 65 0
1 -92 0
1 -93 63 0
1 -94 0
1 -95 0
1 -86 10 0
1 -87 0
1 -88 6 7 0
1 -89 0
1 -90 0
1 -81 0
1 -82 63 0
1 -83 0
1 -84 61 0
1 -85 62 0
1 -116 102 103 0
1 -117 103 0
1 -118 0
1 -119 0
1 -120 0
1 -96 32 0
1 -97 0
1 -98 34 0
1 -99 35 0
1 -100 0
1 -126 0
1 -127 28 29 0
1 -128 26 0
1 -129 0
1 -130 0
1 -11 5 0
1 -12 0
1 -13 0
1 -14 1 0
1 -15 4 0
1 -116 0
1 -117 113 114 0
1 -118 0
1 -119 0
1 -120 111 0
1 -6 0
1 -7 32 0
1 -8 0
1 -9 31 35 0
1 -10 0
1 -121 9 0
1 -122 10 0
1 -123 7 0
1 -124 0
1 -125 0
1 -31 87 89 0
1 -32 0
1 -33 0
1 -34 90 0
1 -35 0
1 -41 0
1 -42 0
1 -43 0
1 -44 33 0
1 -45 33 35 0
1 -16 9 0
1 -17 0
1 -18 7 9 0
1 -19 0
1 -20 0
1 -6 112 0
1 -7 0
1 -8 0
1 -9 111 115 0
1 -10 0
1 -106 32 0
1 -107 34 0
1 -108 0
1 -109 35 0
1 -110 0
1 -16 0
1 -17 0
1 -18 96 0
1 -19 0
1 -20 97 98 0
1 -116 17 0
1 -117 16 17 0
1 -118 0
1 -119 0
1 -120 0
1 -111 0
1 -112 44 0
1 -113 0
1 -114 45 0
1 -115 41 0
1 -121 0
1 -122 101 0
1 -123 103 0
1 -124 0
1 -125 102 0
1 -41 0
1 -42 26 27 0
1 -43 0
1 -44 0
1 -45 28 0
1 -51 0
1 -52 81 84 0
1 -53 0
1 -54 82 0
1 -55 0
1 -21 8 0
1 -22 9 0
1 -23 0
1 -24 0
1 -25 10 0
1 -46 52 54 0
1 -47 0
1 -48 0
1 -49 0
1 -50 55 0
1 -131 0
1 -132 33 0
1 -133 0
1 -134 31 34 0
1 -135 0
1 -91 48 0
1 -92 0
1 -93 0
1 -94 46 47 0
1 -95 0
1 -101 0
1 -102 1 3 0
1 -103 0
1 -104 0
1 -105 5 0
1 -101 43 0
1 -102 0
1 -103 0
1 -104 0
1 -105 44 45 0
1 -126 1 2 0
1 -127 0
1 -128 0
1 -129 0
1 -130 4 0
1 -31 0
1 -32 0
1 -33 0
1 -34 49 0
1 -35 47 48 0
1 -71 0
1 -72 47 49 0
1 -73 46 0
1 -74 0
1 -75 0
1 -6 0
1 -7 0
1 -8 0
1 -9 107 0
1 -10 108 110 0
1 -1 0
1 -2 30 0
1 -3 0
1 -4 0
1 -5 27 29 0
1 -1 114 115 0
1 -2 0
1 -3 111 0
1 -4 0
1 -5 0
1 -96 41 42 0
1 -97 0
1 -98 45 0
1 -99 0
1 -100 0
1 -51 0
1 -52 0
1 -53 25 0
1 -54 21 22 0
1 -55 0
1 -26 0
1 -27 0
1 -28 0
1 -29 121 122 0
1 -30 125 0
1 -21 0
1 -22 26 27 29 0
1 -23 0
1 -24 0
1 -25 0
1 -81 0
1 -82 0
1 -83 0
1 -84 8 0
1 -85 7 10 0
1 -126 104 0
1 -127 0
1 -128 0
1 -129 103 104 0
1 -130 0
1 -26 0
1 -27 113 0
1 -28 111 114 0
1 -29 0
1 -30 0
1 -36 0
1 -37 0
1 -38 0
1 -39 1 0
1 -40 2 4 0
1 -11 10 0
1 -12 0
1 -13 6 0
1 -14 9 0
1 -15 0
1 -81 25 0
1 -82 23 0
1 -83 0
1 -84 0
1 -85 24 0
1 -36 8 0
1 -37 10 0
1 -38 7 0
1 -39 0
1 -40 0
1 -41 68 70 0
1 -42 0
1 -43 0
1 -44 0
1 -45 66 0
1 -46 9 0
1 -47 8 0
1 -48 6 0
1 -49 0
1 -50 0
1 -56 34 0
1 -57 0
1 -58 35 0
1 -59 31 0
1 -60 0
1 -41 52 55 0
1 -42 0
1 -43 0
1 -44 51 0
1 -45 0
1 -101 0
1 -102 27 30 0
1 -103 0
1 -104 0
1 -105 30 0
1 -61 0
1 -62 52 0
1 -63 0
1 -64 51 53 0
1 -65 0
1 -106 42 43 0
1 -107 41 0
1 -108 0
1 -109 0
1 -110 0
1 -136 0
1 -137 0
1 -138 9 0
1 -139 10 0
1 -140 8 0
1 -26 34 0
1 -27 0
1 -28 0
1 -29 0
1 -30 33 35 0
1 -121 115 0
1 -122 113 0
1 -123 0
1 -124 112 0
1 -125 0
1 -101 0
1 -102 0
1 -103 0
1 -104 106 108 110 0
1 -105 0
1 -21 0
1 -22 57 59 0
1 -23 56 0
1 -24 0
1 -25 0
1 -1 0
1 -2 0
1 -3 77 78 0
1 -4 80 0
1 -5 0
1 -76 0
1 -77 51 0
1 -78 0
1 -79 0
1 -80 53 55 0
1 -56 14 0
1 -57 0
1 -58 0
1 -59 12 0
1 -60 15 0
1 -41 0
1 -42 0
1 -43 85 0
1 -44 81 82 0
1 -45 0
1 -91 89 0
1 -92 0
1 -93 0
1 -94 88 0
1 -95 87 0
1 -1 22 23 0
1 -2 0
1 -3 25 0
1 -4 0
1 -5 0
1 -26 10 0
1 -27 0
1 -28 0
1 -29 6 0
1 -30 8 0
1 -66 0
1 -67 80 0
1 -68 76 77 0
1 -69 0
1 -70 0
1 -51 0
1 -52 0
1 -53 0
1 -54 75 0
1 -55 72 74 0
1 -91 33 0
1 -92 0
1 -93 35 0
1 -94 0
1 -95 31 0
1 -16 123 0
1 -17 0
1 -18 121 124 0
1 -19 0
1 -20 0
1 -21 0
1 -22 18 0
1 -23 19 0
1 -24 16 0
1 -25 0
1 -61 14 0
1 -62 0
1 -63 11 0
1 -64 0
1 -65 15 0
1 -31 52 0
1 -32 0
1 -33 53 54 0
1 -34 0
1 -35 0
1 -41 12 0
1 -42 0
1 -43 12 13 0
1 -44 0
1 -45 0
1 -6 55 0
1 -7 51 54 0
1 -8 0
1 -9 0
1 -10 0
1 -71 59 0
1 -72 0
1 -73 57 0
1 -74 58 0
1 -75 0
1 -136 0
1 -137 103 104 0
1 -138 0
1 -139 0
1 -140 102 0
1 -81 0
1 -82 0
1 -83 0
1 -84 92 93 0
1 -85 94 0
1 -96 123 125 0
1 -97 0
1 -98 0
1 -99 0
1 -100 122 0
1 -66 64 0
1 -67 0
1 -68 0
1 -69 65 0
1 -70 61 0
1 -36 31 32 0
1 -37 0
1 -38 33 0
1 -39 0
1 -40 0
1 -1 73 0
1 -2 0
1 -3 0
1 -4 0
1 -5 72 74 0
1 -61 0
1 -62 0
1 -63 48 0
1 -64 0
1 -65 49 50 0
1 -11 17 18 0
1 -12 20 0
1 -13 0
1 -14 0
1 -15 0
1 -126 6 9 0
1 -127 0
1 -128 0
1 -129 0
1 -130 6 0
1 -101 33 0
1 -102 33 35 0
1 -103 0
1 -104 0
1 -105 0
1 -1 0
1 -2 33 0
1 -3 32 35 0
1 -4 0
1 -5 0
1 -1 0
1 -2 52 55 0
1 -3 0
1 -4 54 0
1 -5 0
1 -86 82 85 0
1 -87 83 0
1 -88 0
1 -89 0
1 -90 0
1 -96 111 0
1 -97 112 113 0
1 -98 0
1 -99 0
1 -100 0
1 -116 0
1 -117 98 0
1 -118 100 0
1 -119 0
1 -120 97 0
1 -66 0
1 -67 58 59 0
1 -68 0
1 -69 58 0
1 -70 0
1 -136 1 5 0
1 -137 0
1 -138 5 0
1 -139 0
1 -140 0
1 -136 35 0
1 -137 0
1 -138 0
1 -139 0
1 -140 32 34 0
1 -106 0
1 -107 0
1 -108 5 0
1 -109 1 2 0
1 -110 0
1 -86 0
1 -87 49 0
1 -88 47 48 0
1 -89 0
1 -90 0
1 -66 0
1 -67 8 0
1 -68 10 0
1 -69 6 0
1 -70 0
1 -16 0
1 -17 0
1 -18 42 45 0
1 -19 0
1 -20 41 0
1 -116 0
1 -117 0
1 -118 0
1 -119 2 0
1 -120 1 5 0
1 -56 0
1 -57 0
1 -58 0
1 -59 47 48 50 0
1 -60 0
1 -66 0
1 -67 47 0
1 -68 0
1 -69 0
1 -70 47 48 0
1 -1 99 0
1 -2 0
1 -3 0
1 -4 97 98 0
1 -5 0
1 -11 25 0
1 -12 0
1 -13 0
1 -14 0
1 -15 22 23 0
1 -136 26 0
1 -137 29 0
1 -138 0
1 -139 0
1 -140 28 0
1 -131 0
1 -132 0
1 -133 129 0
1 -134 130 0
1 -135 128 0
1 -131 23 0
1 -132 21 0
1 -133 24 0
1 -134 0
1 -135 0
1 -6 0
1 -7 0
1 -8 0
1 -9 0
1 -10 96 97 100 0
1 -11 0
1 -12 0
1 -13 47 48 49 0
1 -14 0
1 -15 0
1 -26 0
1 -27 0
1 -28 119 0
1 -29 116 117 0
1 -30 0
1 -76 0
1 -77 0
1 -78 61 0
1 -79 62 65 0
1 -80 0
1 -86 51 0
1 -87 0
1 -88 53 0
1 -89 52 0
1 -90 0
1 -71 0
1 -72 70 0
1 -73 0
1 -74 68 0
1 -75 67 0
1 -46 4 0
1 -47 0
1 -48 0
1 -49 0
1 -50 4 5 0
1 -126 0
1 -127 31 32 33 0
1 -128 0
1 -129 0
1 -130 0
1 -41 0
1 -42 0
1 -43 4 0
1 -44 2 0
1 -45 3 0
1 -91 0
1 -92 55 0
1 -93 53 0
1 -94 52 0
1 -95 0
1 -91 0
1 -92 0
1 -93 41 43 0
1 -94 43 0
1 -95 0
1 -56 5 0
1 -57 0
1 -58 3 0
1 -59 4 0
1 -60 0
1 -106 0
1 -107 30 0
1 -108 26 30 0
1 -109 0
1 -110 0
1 -81 0
1 -82 32 33 0
1 -83 0
1 -84 0
1 -85 35 0
1 -1 68 69 70 0
1 -2 0
1 -3 0
1 -4 0
1 -5 0
1 -21 0
1 -22 0
1 -23 0
1 -24 0
1 -25 126 129 130 0
1 -6 44 0
1 -7 0
1 -8 41 42 0
1 -9 0
1 -10 0
1 -71 41 0
1 -72 45 0
1 -73 0
1 -74 44 0
1 -75 0
1 -71 10 0
1 -72 9 0
1 -73 0
1 -74 8 0
1 -75 0
1 -91 21 23 0
1 -92 0
1 -93 0
1 -94 0
1 -95 25 0
1 -36 27 0
1 -37 30 0
1 -38 0
1 -39 28 0
1 -40 0
1 -41 88 90 0
1 -42 86 0
1 -43 0
1 -44 0
1 -45 0
1 -61 6 0
1 -62 0
1 -63 7 0
1 -64 8 0
1 -65 0
1 -31 0
1 -32 0
1 -33 20 0
1 -34 0
1 -35 16 17 0
1 -116 42 0
1 -117 43 0
1 -118 0
1 -119 0
1 -120 45 0
1 -121 2 3 0
1 -122 2 0
1 -123 0
1 -124 0
1 -125 0
1 -46 42 43 45 0
1 -47 0
1 -48 0
1 -49 0
1 -50 0
1 -11 0
1 -12 26 0
1 -13 0
1 -14 0
1 -15 29 30 0
1 -46 26 0
1 -47 0
1 -48 0
1 -49 28 0
1 -50 27 0
1 -136 22 0
1 -137 0
1 -138 24 25 0
1 -139 0
1 -140 0
1 -16 0
1 -17 103 0
1 -18 101 105 0
1 -19 0
1 -20 0
1 -101 0
1 -102 0
1 -103 7 0
1 -104 6 0
1 -105 9 0
1 -46 0
1 -47 0
1 -48 40 0
1 -49 38 0
1 -50 37 0
1 -131 0
1 -132 0
1 -133 0
1 -134 41 42 43 0
1 -135 0
1 -56 78 0
1 -57 0
1 -58 0
1 -59 0
1 -60 79 80 0
1 -86 0
1 -87 63 0
1 -88 62 63 0
1 -89 0
1 -90 0
1 -56 41 0
1 -57 0
1 -58 0
1 -59 0
1 -60 44 45 0
1 -56 9 0
1 -57 0
1 -58 0
1 -59 7 10 0
1 -60 0
1 -46 0
1 -47 0
1 -48 0
1 -49 77 78 0
1 -50 76 0
1 -11 0
1 -12 0
1 -13 31 0
1 -14 0
1 -15 33 34 0
1 -56 0
1 -57 54 0
1 -58 52 0
1 -59 0
1 -60 53 0
1 -16 36 39 0
1 -17 0
1 -18 0
1 -19 0
1 -20 40 0
1 -81 49 0
1 -82 0
1 -83 48 0
1 -84 0
1 -85 50 0
1 -1 0
1 -2 7 10 0
1 -3 0
1 -4 0
1 -5 8 0
1 -51 0
1 -52 14 0
1 -53 0
1 -54 0
1 -55 11 14 0
1 -96 0
1 -97 104 0
1 -98 0
1 -99 0
1 -100 101 102 0
1 -16 0
1 -17 0
1 -18 0
1 -19 110 0
1 -20 108 109 0
1 -1 64 0
1 -2 0
1 -3 0
1 -4 0
1 -5 62 65 0
1 -76 43 45 0
1 -77 42 0
1 -78 0
1 -79 0
1 -80 0
